 20
 807304 365268 71972 635962 628375 105248 912959 102532 258867 778387 351744 775629 997576 264796 438778 549088 522456 920079 775693 76582
 1490790 691574 150435 1164050 1227890 219877 1934511 199053 514991 1522492 769943 1680173 1839759 523879 800279 1097473 1091605 1921590 1495883 139897
 5169647